results/log/URT_03_makespan_heurTrue.log

Gurobi 10.0.1 (win64) logging started Fri Oct  6 16:53:11 2023

Set parameter LogFile to value "./results//log/URT_03_makespan_heurTrue.log"
Gurobi Optimizer version 10.0.1 build v10.0.1rc0 (win64)

CPU model: AMD Ryzen 7 3700X 8-Core Processor, instruction set [SSE2|AVX|AVX2]
Thread count: 8 physical cores, 16 logical processors, using up to 16 threads

Optimize a model with 44 rows, 49 columns and 127 nonzeros
Model fingerprint: 0xa94740c4
Variable types: 0 continuous, 49 integer (42 binary)
Coefficient statistics:
  Matrix range     [1e+00, 1e+07]
  Objective range  [1e+00, 1e+00]
  Bounds range     [1e+00, 1e+00]
  RHS range        [1e+00, 3e+07]

User MIP start did not produce a new incumbent solution
User MIP start violates constraint initial_start_time_job1_stage0_machine1_constraint by 1.000000000

Found heuristic solution: objective 69.0000000
Presolve removed 28 rows and 37 columns
Presolve time: 0.00s
Presolved: 16 rows, 12 columns, 44 nonzeros
Variable types: 0 continuous, 12 integer (6 binary)

Root relaxation: objective 2.400000e+01, 6 iterations, 0.00 seconds (0.00 work units)

    Nodes    |    Current Node    |     Objective Bounds      |     Work
 Expl Unexpl |  Obj  Depth IntInf | Incumbent    BestBd   Gap | It/Node Time

     0     0   24.00000    0    6   69.00000   24.00000  65.2%     -    0s

Cutting planes:
  Implied bound: 2
  RLT: 1
  Relax-and-lift: 2

Explored 1 nodes (6 simplex iterations) in 0.04 seconds (0.00 work units)
Thread count was 16 (of 16 available processors)

Solution count 2: 69 69 

Optimal solution found (tolerance 1.00e-04)
Best objective 6.900000000000e+01, best bound 6.900000000000e+01, gap 0.0000%
Warning: constraint name "precedence between 0,0 to 0,1 if x_[0,0,0,1,0]=0, i.e. 0,1 before 0,0" has a space
Warning: constraint name "precedence between 0,0 to 0,1 if x_[0,0,0,1,0]=0, i.e. 0,1 before 0,0" has a space
Warning: default constraint names used to write mps file
